0 0 0 0
0 1 0 0
0 2 0 0
0 3 0 0
0 4 0 1
0 5 0 2
0 6 1 1
0 7 0 1
0 8 1 11
0 9 1 7
0 10 0 6
0 11 0 6
0 12 0 10
0 13 0 10
0 14 0 7
0 15 0 12
0 16 0 13
0 17 1 10
0 18 1 2
0 19 2 8
0 20 0 15
0 21 1 18
0 22 0 13
0 23 2 17
0 24 0 22
0 25 2 13
0 26 1 16
0 27 0 21
0 28 1 18
0 29 0 22
0 30 0 23
0 31 0 26
